<?xml version = "1.0" standalone="yes"?>
<!-- This file has been generated by DOcplex version 2.23.222  -->
<CPLEXSolution version="1.0">
 <header
   problemName="CVRP"
   objectiveValue="12823.5"
  />
 <variables>
  <variable name="x_0_1" index="0" value="1.00000"/>
  <variable name="x_0_3" index="2" value="1.00000"/>
  <variable name="x_0_4" index="3" value="1.00000"/>
  <variable name="x_0_8" index="7" value="1.00000"/>
  <variable name="x_0_9" index="8" value="1.00000"/>
  <variable name="x_0_10" index="9" value="1.00000"/>
  <variable name="x_0_11" index="10" value="1.00000"/>
  <variable name="x_0_12" index="11" value="1.00000"/>
  <variable name="x_0_13" index="12" value="1.00000"/>
  <variable name="x_1_0" index="13" value="1.00000"/>
  <variable name="x_2_0" index="26" value="1.00000"/>
  <variable name="x_3_6" index="44" value="1.00000"/>
  <variable name="x_4_7" index="58" value="1.00000"/>
  <variable name="x_5_0" index="65" value="1.00000"/>
  <variable name="x_6_0" index="78" value="1.00000"/>
  <variable name="x_7_5" index="96" value="1.00000"/>
  <variable name="x_8_0" index="104" value="1.00000"/>
  <variable name="x_9_0" index="117" value="1.00000"/>
  <variable name="x_10_0" index="130" value="1.00000"/>
  <variable name="x_11_2" index="145" value="1.00000"/>
  <variable name="x_12_0" index="156" value="1.00000"/>
  <variable name="x_13_0" index="169" value="1.00000"/>
  <variable name="u_1" index="182" value="36.00000"/>
  <variable name="u_2" index="183" value="42.00000"/>
  <variable name="u_3" index="184" value="27.00000"/>
  <variable name="u_4" index="185" value="35.00000"/>
  <variable name="u_5" index="186" value="52.00000"/>
  <variable name="u_6" index="187" value="59.00000"/>
  <variable name="u_7" index="188" value="48.00000"/>
  <variable name="u_8" index="189" value="40.00000"/>
  <variable name="u_9" index="190" value="45.00000"/>
  <variable name="u_10" index="191" value="51.00000"/>
  <variable name="u_11" index="192" value="11.00000"/>
  <variable name="u_12" index="193" value="38.00000"/>
  <variable name="u_13" index="194" value="52.00000"/>
 </variables>
</CPLEXSolution>
